weniger-krumme-touren/beispiele/random/50/504.txt.solution
[0, 4, 3, 2, 46, 16, 1, 14, 13, 9, 8, 7, 6, 5, 15, 47, 10, 45, 19, 20, 49, 23, 44, 37, 38, 39, 40, 41, 42, 24, 43, 22, 21, 18, 27, 28, 29, 12, 48, 17, 11, 30, 26, 31, 32, 33, 25, 34, 35, 36]